p edge 168 1034
e 1 47
e 2 48
e 3 49
e 4 50
e 5 51
e 6 52
e 7 53
e 8 54
e 9 55
e 10 56
e 11 57
e 12 58
e 13 59
e 14 60
e 15 61
e 16 62
e 17 63
e 18 64
e 19 65
e 20 66
e 21 67
e 22 68
e 23 69
e 24 70
e 25 71
e 26 72
e 27 73
e 28 74
e 29 75
e 30 76
e 31 77
e 32 78
e 33 79
e 34 80
e 35 81
e 36 82
e 37 83
e 38 84
e 39 85
e 40 86
e 41 87
e 42 88
e 43 89
e 44 90
e 45 91
e 46 92
e 47 95
e 47 96
e 47 97
e 47 102
e 47 104
e 47 105
e 47 107
e 47 113
e 47 122
e 47 123
e 47 125
e 47 126
e 47 130
e 47 132
e 47 133
e 47 134
e 47 141
e 47 142
e 47 146
e 47 148
e 47 149
e 47 150
e 47 156
e 47 157
e 47 161
e 48 94
e 48 99
e 48 100
e 48 102
e 48 103
e 48 105
e 48 108
e 48 113
e 48 119
e 48 129
e 48 137
e 48 139
e 48 142
e 48 143
e 48 144
e 48 146
e 48 147
e 48 149
e 48 150
e 48 153
e 48 155
e 48 158
e 48 160
e 48 163
e 48 165
e 48 167
e 49 93
e 49 103
e 49 104
e 49 105
e 49 110
e 49 113
e 49 121
e 49 124
e 49 125
e 49 130
e 49 132
e 49 157
e 49 162
e 49 164
e 49 166
e 50 100
e 50 101
e 50 118
e 50 121
e 50 132
e 50 134
e 50 135
e 50 137
e 50 138
e 50 143
e 50 144
e 50 145
e 50 151
e 50 155
e 50 157
e 50 160
e 50 163
e 50 164
e 50 168
e 51 95
e 51 102
e 51 113
e 51 114
e 51 119
e 51 122
e 51 124
e 51 127
e 51 128
e 51 129
e 51 135
e 51 137
e 51 139
e 51 140
e 51 141
e 51 147
e 51 151
e 51 157
e 51 162
e 51 164
e 51 167
e 51 168
e 52 96
e 52 97
e 52 98
e 52 101
e 52 108
e 52 109
e 52 110
e 52 112
e 52 114
e 52 115
e 52 116
e 52 117
e 52 123
e 52 124
e 52 127
e 52 132
e 52 134
e 52 135
e 52 136
e 52 152
e 52 154
e 52 159
e 52 165
e 53 96
e 53 98
e 53 100
e 53 101
e 53 104
e 53 112
e 53 113
e 53 114
e 53 131
e 53 132
e 53 137
e 53 139
e 53 142
e 53 145
e 53 150
e 53 161
e 53 162
e 53 163
e 53 168
e 54 103
e 54 104
e 54 107
e 54 109
e 54 111
e 54 125
e 54 131
e 54 138
e 54 142
e 54 143
e 54 144
e 54 148
e 54 149
e 54 153
e 54 154
e 54 155
e 54 157
e 54 159
e 54 161
e 54 162
e 54 165
e 54 166
e 54 167
e 55 100
e 55 101
e 55 102
e 55 110
e 55 111
e 55 113
e 55 116
e 55 118
e 55 119
e 55 120
e 55 122
e 55 125
e 55 130
e 55 139
e 55 140
e 55 147
e 55 148
e 55 152
e 55 154
e 55 156
e 55 158
e 55 159
e 55 165
e 55 168
e 56 109
e 56 112
e 56 116
e 56 123
e 56 127
e 56 128
e 56 135
e 56 136
e 56 144
e 56 147
e 56 149
e 56 153
e 56 164
e 56 165
e 56 167
e 57 96
e 57 97
e 57 98
e 57 100
e 57 103
e 57 106
e 57 107
e 57 109
e 57 114
e 57 117
e 57 118
e 57 120
e 57 122
e 57 123
e 57 124
e 57 125
e 57 133
e 57 134
e 57 135
e 57 136
e 57 137
e 57 141
e 57 142
e 57 147
e 57 153
e 57 155
e 57 157
e 57 163
e 57 166
e 58 93
e 58 96
e 58 98
e 58 104
e 58 108
e 58 109
e 58 112
e 58 115
e 58 122
e 58 125
e 58 135
e 58 136
e 58 137
e 58 139
e 58 143
e 58 148
e 58 149
e 58 154
e 58 155
e 58 156
e 58 158
e 58 159
e 58 167
e 58 168
e 59 93
e 59 97
e 59 102
e 59 104
e 59 110
e 59 114
e 59 119
e 59 120
e 59 123
e 59 126
e 59 128
e 59 139
e 59 143
e 59 145
e 59 147
e 59 148
e 59 150
e 59 151
e 59 153
e 59 154
e 59 161
e 59 163
e 60 97
e 60 101
e 60 108
e 60 117
e 60 118
e 60 121
e 60 122
e 60 126
e 60 127
e 60 135
e 60 141
e 60 142
e 60 146
e 60 149
e 60 151
e 60 156
e 60 157
e 60 162
e 60 168
e 61 94
e 61 95
e 61 98
e 61 100
e 61 101
e 61 104
e 61 110
e 61 111
e 61 117
e 61 121
e 61 123
e 61 126
e 61 127
e 61 133
e 61 140
e 61 142
e 61 148
e 61 153
e 61 164
e 61 166
e 62 101
e 62 102
e 62 103
e 62 104
e 62 106
e 62 107
e 62 112
e 62 115
e 62 136
e 62 137
e 62 139
e 62 140
e 62 144
e 62 145
e 62 153
e 62 156
e 62 157
e 62 162
e 62 164
e 62 166
e 63 93
e 63 94
e 63 99
e 63 107
e 63 110
e 63 119
e 63 120
e 63 127
e 63 133
e 63 143
e 63 146
e 63 147
e 63 151
e 63 152
e 63 160
e 63 163
e 63 164
e 63 165
e 63 166
e 64 95
e 64 99
e 64 105
e 64 106
e 64 108
e 64 117
e 64 118
e 64 122
e 64 124
e 64 132
e 64 135
e 64 141
e 64 144
e 64 148
e 64 149
e 64 151
e 64 152
e 64 155
e 64 161
e 64 162
e 64 165
e 64 167
e 65 93
e 65 94
e 65 98
e 65 99
e 65 101
e 65 106
e 65 107
e 65 112
e 65 114
e 65 124
e 65 126
e 65 129
e 65 131
e 65 142
e 65 154
e 65 155
e 65 156
e 65 160
e 66 96
e 66 97
e 66 111
e 66 116
e 66 120
e 66 123
e 66 124
e 66 125
e 66 126
e 66 128
e 66 131
e 66 136
e 66 140
e 66 142
e 66 143
e 66 145
e 66 155
e 66 159
e 66 160
e 66 161
e 66 164
e 67 94
e 67 97
e 67 99
e 67 100
e 67 103
e 67 104
e 67 110
e 67 111
e 67 117
e 67 121
e 67 128
e 67 129
e 67 134
e 67 144
e 67 145
e 67 159
e 67 161
e 67 167
e 68 95
e 68 107
e 68 111
e 68 114
e 68 115
e 68 120
e 68 125
e 68 127
e 68 128
e 68 129
e 68 130
e 68 139
e 68 140
e 68 142
e 68 154
e 68 156
e 68 159
e 68 160
e 68 161
e 68 162
e 68 166
e 69 94
e 69 98
e 69 100
e 69 104
e 69 106
e 69 109
e 69 133
e 69 140
e 69 142
e 69 145
e 69 148
e 69 149
e 69 150
e 69 157
e 69 158
e 69 159
e 69 160
e 69 164
e 70 94
e 70 97
e 70 112
e 70 118
e 70 119
e 70 121
e 70 122
e 70 123
e 70 129
e 70 130
e 70 131
e 70 132
e 70 133
e 70 135
e 70 138
e 70 141
e 70 143
e 70 144
e 70 146
e 70 147
e 70 153
e 70 154
e 70 158
e 70 162
e 70 165
e 70 166
e 71 93
e 71 96
e 71 101
e 71 104
e 71 105
e 71 117
e 71 120
e 71 124
e 71 129
e 71 131
e 71 134
e 71 149
e 71 152
e 71 154
e 72 93
e 72 94
e 72 96
e 72 97
e 72 100
e 72 102
e 72 103
e 72 110
e 72 111
e 72 112
e 72 113
e 72 115
e 72 118
e 72 126
e 72 130
e 72 134
e 72 137
e 72 139
e 72 141
e 72 143
e 72 146
e 72 153
e 72 156
e 72 158
e 72 160
e 72 166
e 72 168
e 73 95
e 73 101
e 73 102
e 73 108
e 73 109
e 73 117
e 73 120
e 73 128
e 73 131
e 73 133
e 73 134
e 73 135
e 73 140
e 73 141
e 73 145
e 73 149
e 73 152
e 73 155
e 73 158
e 73 159
e 73 163
e 73 166
e 74 95
e 74 97
e 74 99
e 74 102
e 74 106
e 74 107
e 74 111
e 74 115
e 74 116
e 74 118
e 74 119
e 74 125
e 74 126
e 74 129
e 74 131
e 74 132
e 74 133
e 74 134
e 74 137
e 74 140
e 74 144
e 74 147
e 74 153
e 74 154
e 74 158
e 74 164
e 74 167
e 74 168
e 75 96
e 75 99
e 75 107
e 75 108
e 75 109
e 75 112
e 75 115
e 75 119
e 75 120
e 75 122
e 75 126
e 75 133
e 75 134
e 75 135
e 75 136
e 75 138
e 75 139
e 75 150
e 75 153
e 75 154
e 75 156
e 75 158
e 75 161
e 76 93
e 76 94
e 76 95
e 76 98
e 76 106
e 76 108
e 76 109
e 76 110
e 76 112
e 76 115
e 76 116
e 76 117
e 76 121
e 76 126
e 76 127
e 76 131
e 76 136
e 76 140
e 76 147
e 76 152
e 76 155
e 76 158
e 76 159
e 77 93
e 77 97
e 77 98
e 77 103
e 77 104
e 77 109
e 77 110
e 77 114
e 77 119
e 77 121
e 77 128
e 77 129
e 77 138
e 77 141
e 77 143
e 77 144
e 77 145
e 77 148
e 77 152
e 77 156
e 77 157
e 77 162
e 77 164
e 78 99
e 78 105
e 78 107
e 78 108
e 78 110
e 78 111
e 78 113
e 78 114
e 78 120
e 78 130
e 78 132
e 78 143
e 78 144
e 78 148
e 78 150
e 78 151
e 78 152
e 78 158
e 78 165
e 78 166
e 78 168
e 79 99
e 79 100
e 79 105
e 79 108
e 79 114
e 79 115
e 79 116
e 79 117
e 79 121
e 79 125
e 79 130
e 79 131
e 79 138
e 79 139
e 79 146
e 79 150
e 79 153
e 79 159
e 79 162
e 79 167
e 79 168
e 80 94
e 80 96
e 80 98
e 80 103
e 80 104
e 80 109
e 80 118
e 80 119
e 80 121
e 80 122
e 80 124
e 80 125
e 80 127
e 80 130
e 80 133
e 80 135
e 80 136
e 80 137
e 80 138
e 80 145
e 80 146
e 80 147
e 80 148
e 80 150
e 80 151
e 80 152
e 80 155
e 80 159
e 80 161
e 80 162
e 80 163
e 80 167
e 81 93
e 81 95
e 81 98
e 81 99
e 81 100
e 81 106
e 81 107
e 81 109
e 81 111
e 81 114
e 81 116
e 81 121
e 81 123
e 81 124
e 81 126
e 81 131
e 81 138
e 81 155
e 81 161
e 81 163
e 81 167
e 82 96
e 82 99
e 82 105
e 82 106
e 82 111
e 82 115
e 82 116
e 82 117
e 82 119
e 82 121
e 82 124
e 82 126
e 82 136
e 82 137
e 82 139
e 82 140
e 82 141
e 82 145
e 82 146
e 82 149
e 82 151
e 82 152
e 82 163
e 82 166
e 82 168
e 83 94
e 83 99
e 83 100
e 83 102
e 83 105
e 83 113
e 83 116
e 83 122
e 83 127
e 83 134
e 83 136
e 83 140
e 83 141
e 83 143
e 83 144
e 83 145
e 83 146
e 83 149
e 83 150
e 83 158
e 83 160
e 84 101
e 84 103
e 84 105
e 84 106
e 84 110
e 84 112
e 84 123
e 84 130
e 84 132
e 84 133
e 84 134
e 84 136
e 84 138
e 84 143
e 84 157
e 85 96
e 85 101
e 85 103
e 85 107
e 85 113
e 85 118
e 85 126
e 85 127
e 85 128
e 85 129
e 85 130
e 85 134
e 85 137
e 85 138
e 85 144
e 85 146
e 85 151
e 85 156
e 85 157
e 85 159
e 85 160
e 85 161
e 85 164
e 85 165
e 85 168
e 86 93
e 86 94
e 86 97
e 86 99
e 86 106
e 86 111
e 86 119
e 86 120
e 86 122
e 86 124
e 86 129
e 86 132
e 86 135
e 86 136
e 86 137
e 86 138
e 86 145
e 86 146
e 86 148
e 86 149
e 86 152
e 86 160
e 86 165
e 87 95
e 87 101
e 87 103
e 87 106
e 87 115
e 87 118
e 87 123
e 87 125
e 87 128
e 87 133
e 87 147
e 87 151
e 87 163
e 87 165
e 88 93
e 88 94
e 88 95
e 88 100
e 88 102
e 88 113
e 88 115
e 88 116
e 88 117
e 88 120
e 88 128
e 88 129
e 88 133
e 88 138
e 88 140
e 88 147
e 88 150
e 88 151
e 88 152
e 88 154
e 88 156
e 89 93
e 89 95
e 89 96
e 89 102
e 89 105
e 89 107
e 89 109
e 89 110
e 89 113
e 89 116
e 89 117
e 89 125
e 89 127
e 89 128
e 89 129
e 89 131
e 89 132
e 89 138
e 89 141
e 89 148
e 89 155
e 89 158
e 89 160
e 89 161
e 89 163
e 89 164
e 89 165
e 89 167
e 90 97
e 90 98
e 90 102
e 90 105
e 90 108
e 90 111
e 90 112
e 90 118
e 90 119
e 90 123
e 90 130
e 90 131
e 90 139
e 90 151
e 90 154
e 90 157
e 90 162
e 91 103
e 91 106
e 91 108
e 91 112
e 91 114
e 91 115
e 91 118
e 91 121
e 91 124
e 91 130
e 91 132
e 91 141
e 91 142
e 91 146
e 91 150
e 91 156
e 91 160
e 91 163
e 91 166
e 91 167
e 92 95
e 92 98
e 92 105
e 92 108
e 92 113
e 92 114
e 92 116
e 92 120
e 92 122
e 92 123
e 92 127
e 92 128
e 92 142
e 92 150
e 92 153
e 92 168
